<number of tasks>
100

<cycle time>
1000

<order strength>
0.596


<task times>
1 846
2 661
3 593
4 685
5 554
6 645
7 504
8 620
9 411
10 478
11 310
12 352
13 582
14 608
15 535
16 506
17 555
18 614
19 502
20 378
21 468
22 481
23 521
24 472
25 341
26 548
27 470
28 575
29 501
30 440
31 482
32 626
33 242
34 421
35 535
36 691
37 617
38 333
39 788
40 424
41 350
42 639
43 298
44 499
45 257
46 488
47 513
48 481
49 621
50 433
51 555
52 508
53 500
54 544
55 609
56 377
57 536
58 309
59 507
60 550
61 503
62 528
63 641
64 547
65 319
66 504
67 522
68 751
69 269
70 604
71 405
72 610
73 606
74 547
75 676
76 407
77 728
78 446
79 288
80 278
81 409
82 406
83 702
84 646
85 493
86 557
87 719
88 533
89 232
90 288
91 471
92 406
93 484
94 223
95 213
96 682
97 787
98 442
99 414
100 422

<precedence relations>
1,9
2,11
3,8
3,10
3,12
3,13
3,14
4,12
5,12
5,13
5,14
6,12
7,12
8,16
9,17
10,18
11,15
12,19
12,21
12,22
13,20
13,22
13,32
14,21
15,23
16,27
17,27
18,24
19,25
20,26
21,27
21,28
22,27
22,29
22,31
23,30
24,31
25,32
26,30
27,30
27,34
27,35
28,30
28,35
29,33
29,34
29,40
30,36
30,37
30,38
30,39
30,40
31,47
31,52
31,79
32,52
32,55
33,37
33,39
34,37
34,38
35,37
35,39
36,41
37,42
37,44
37,45
37,46
37,47
38,43
38,45
38,52
38,55
39,92
40,46
40,47
41,51
42,48
43,49
44,50
45,59
45,91
45,98
46,51
46,52
46,61
47,72
47,73
47,91
48,53
49,54
50,55
51,59
51,78
52,56
53,57
54,58
55,59
55,61
55,98
56,60
57,64
58,65
59,62
59,63
59,67
60,66
60,72
61,86
62,69
63,70
64,68
65,72
66,71
66,73
67,79
67,86
68,74
69,79
70,77
71,76
72,75
72,89
72,95
73,78
73,96
74,80
75,82
76,84
77,83
78,81
78,85
78,86
79,90
79,97
80,89
81,87
82,88
83,90
84,91
84,92
86,92
87,93
88,94
89,96
90,95
90,96
91,97
92,94
92,95
93,98
95,99
95,100

<end>
